N_J = 28;
N_H = 22;
N_D = 1;
y = 6;
a = 1;
b = 1;
D = [
[0, 0, 0, 0, 0, 0, 0, 0, 0, 0, 0, 0, 0, 0, 0, 0, 0, 0, 0, 0, 0, 0, 0],
[1, 1, 5, 4, 5, 1, 5, 0, 5, 1, 0, 0, 4, 0, 4, 0, 2, 0, 2, 0, 4, 1, 0],
[1, 1, 5, 4, 5, 1, 5, 0, 5, 1, 0, 0, 4, 0, 4, 0, 2, 0, 2, 0, 4, 1, 0],
[1, 1, 5, 4, 5, 1, 5, 0, 5, 1, 0, 0, 4, 0, 4, 0, 2, 0, 2, 0, 4, 1, 0],
[1, 1, 5, 4, 5, 1, 5, 0, 5, 1, 0, 0, 4, 0, 4, 0, 2, 0, 2, 0, 4, 1, 0],
[1, 1, 5, 4, 5, 1, 5, 0, 5, 1, 0, 0, 4, 0, 4, 0, 2, 0, 2, 0, 4, 1, 0],
[1, 1, 5, 4, 5, 1, 5, 0, 5, 1, 0, 0, 4, 0, 4, 0, 2, 0, 2, 0, 4, 1, 0],
[1, 1, 5, 4, 5, 1, 5, 0, 5, 1, 0, 0, 4, 0, 4, 0, 2, 0, 2, 0, 4, 1, 0],
[1, 1, 5, 4, 5, 1, 5, 0, 5, 1, 0, 0, 4, 0, 4, 0, 2, 0, 2, 0, 4, 1, 0],
[1, 1, 5, 4, 5, 1, 5, 0, 5, 1, 0, 0, 4, 0, 4, 0, 2, 0, 2, 0, 4, 1, 0],
[1, 1, 5, 4, 5, 1, 5, 0, 5, 1, 0, 0, 4, 0, 4, 0, 2, 0, 2, 0, 4, 1, 0],
[1, 1, 5, 4, 5, 1, 5, 0, 5, 1, 0, 0, 4, 0, 4, 0, 2, 0, 2, 0, 4, 1, 0],
[1, 1, 5, 4, 5, 1, 5, 0, 5, 1, 0, 0, 4, 0, 4, 0, 2, 0, 2, 0, 4, 1, 0],
[1, 1, 5, 4, 5, 1, 5, 0, 5, 1, 0, 0, 4, 0, 4, 0, 2, 0, 2, 0, 4, 1, 0],
[1, 1, 5, 4, 5, 1, 5, 0, 5, 1, 0, 0, 4, 0, 4, 0, 2, 0, 2, 0, 4, 1, 0],
[1, 1, 5, 4, 5, 1, 5, 0, 5, 1, 0, 0, 4, 0, 4, 0, 2, 0, 2, 0, 4, 1, 0],
[1, 1, 5, 4, 5, 1, 5, 0, 5, 1, 0, 0, 4, 0, 4, 0, 2, 0, 2, 0, 4, 1, 0],
[1, 1, 5, 4, 5, 1, 5, 0, 5, 1, 0, 0, 4, 0, 4, 0, 2, 0, 2, 0, 4, 1, 0],
[1, 1, 5, 4, 5, 1, 5, 0, 5, 1, 0, 0, 4, 0, 4, 0, 2, 0, 2, 0, 4, 1, 0],
[1, 1, 5, 4, 5, 1, 5, 0, 5, 1, 0, 0, 4, 0, 4, 0, 2, 0, 2, 0, 4, 1, 0],
[1, 1, 5, 4, 5, 1, 5, 0, 5, 1, 0, 0, 4, 0, 4, 0, 2, 0, 2, 0, 4, 1, 0],
[1, 1, 5, 4, 5, 1, 5, 0, 5, 1, 0, 0, 4, 0, 4, 0, 2, 0, 2, 0, 4, 1, 0],
[1, 1, 5, 4, 5, 1, 5, 0, 5, 1, 0, 0, 4, 0, 4, 0, 2, 0, 2, 0, 4, 1, 0],
[1, 1, 5, 4, 5, 1, 5, 0, 5, 1, 0, 0, 4, 0, 4, 0, 2, 0, 2, 0, 4, 1, 0],
[1, 1, 5, 4, 5, 1, 5, 0, 5, 1, 0, 0, 4, 0, 4, 0, 2, 0, 2, 0, 4, 1, 0],
[1, 1, 5, 4, 5, 1, 5, 0, 5, 1, 0, 0, 4, 0, 4, 0, 2, 0, 2, 0, 4, 1, 0],
[1, 1, 5, 4, 5, 1, 5, 0, 5, 1, 0, 0, 4, 0, 4, 0, 2, 0, 2, 0, 4, 1, 0],
[1, 1, 5, 4, 5, 1, 5, 0, 5, 1, 0, 0, 4, 0, 4, 0, 2, 0, 2, 0, 4, 1, 0],
[1, 1, 5, 4, 5, 1, 5, 0, 5, 1, 0, 0, 4, 0, 4, 0, 2, 0, 2, 0, 4, 1, 0]
];
M = 30;
I = [
[0, 0, 0, 0, 0, 0, 0, 0, 0, 0, 0, 0, 0, 0, 0, 0, 0, 0, 0, 0, 0, 0, 0],
[5, 2, 1, 0, 3, 5, 3, 3, 5, 3, 2, 2, 0, 4, 1, 6, 5, 3, 4, 0, 6, 5, 0],
[5, 2, 1, 0, 3, 5, 3, 3, 5, 3, 2, 2, 0, 4, 1, 6, 5, 3, 4, 0, 6, 5, 0],
[5, 2, 1, 0, 3, 5, 3, 3, 5, 3, 2, 2, 0, 4, 1, 6, 5, 3, 4, 0, 6, 5, 0],
[5, 2, 1, 0, 3, 5, 3, 3, 5, 3, 2, 2, 0, 4, 1, 6, 5, 3, 4, 0, 6, 5, 0],
[5, 2, 1, 0, 3, 5, 3, 3, 5, 3, 2, 2, 0, 4, 1, 6, 5, 3, 4, 0, 6, 5, 0],
[5, 2, 1, 0, 3, 5, 3, 3, 5, 3, 2, 2, 0, 4, 1, 6, 5, 3, 4, 0, 6, 5, 0],
[5, 2, 1, 0, 3, 5, 3, 3, 5, 3, 2, 2, 0, 4, 1, 6, 5, 3, 4, 0, 6, 5, 0],
[5, 2, 1, 0, 3, 5, 3, 3, 5, 3, 2, 2, 0, 4, 1, 6, 5, 3, 4, 0, 6, 5, 0],
[5, 2, 1, 0, 3, 5, 3, 3, 5, 3, 2, 2, 0, 4, 1, 6, 5, 3, 4, 0, 6, 5, 0],
[5, 2, 1, 0, 3, 5, 3, 3, 5, 3, 2, 2, 0, 4, 1, 6, 5, 3, 4, 0, 6, 5, 0],
[5, 2, 1, 0, 3, 5, 3, 3, 5, 3, 2, 2, 0, 4, 1, 6, 5, 3, 4, 0, 6, 5, 0],
[5, 2, 1, 0, 3, 5, 3, 3, 5, 3, 2, 2, 0, 4, 1, 6, 5, 3, 4, 0, 6, 5, 0],
[5, 2, 1, 0, 3, 5, 3, 3, 5, 3, 2, 2, 0, 4, 1, 6, 5, 3, 4, 0, 6, 5, 0],
[5, 2, 1, 0, 3, 5, 3, 3, 5, 3, 2, 2, 0, 4, 1, 6, 5, 3, 4, 0, 6, 5, 0],
[5, 2, 1, 0, 3, 5, 3, 3, 5, 3, 2, 2, 0, 4, 1, 6, 5, 3, 4, 0, 6, 5, 0],
[5, 2, 1, 0, 3, 5, 3, 3, 5, 3, 2, 2, 0, 4, 1, 6, 5, 3, 4, 0, 6, 5, 0],
[5, 2, 1, 0, 3, 5, 3, 3, 5, 3, 2, 2, 0, 4, 1, 6, 5, 3, 4, 0, 6, 5, 0],
[5, 2, 1, 0, 3, 5, 3, 3, 5, 3, 2, 2, 0, 4, 1, 6, 5, 3, 4, 0, 6, 5, 0],
[5, 2, 1, 0, 3, 5, 3, 3, 5, 3, 2, 2, 0, 4, 1, 6, 5, 3, 4, 0, 6, 5, 0],
[5, 2, 1, 0, 3, 5, 3, 3, 5, 3, 2, 2, 0, 4, 1, 6, 5, 3, 4, 0, 6, 5, 0],
[5, 2, 1, 0, 3, 5, 3, 3, 5, 3, 2, 2, 0, 4, 1, 6, 5, 3, 4, 0, 6, 5, 0],
[5, 2, 1, 0, 3, 5, 3, 3, 5, 3, 2, 2, 0, 4, 1, 6, 5, 3, 4, 0, 6, 5, 0],
[5, 2, 1, 0, 3, 5, 3, 3, 5, 3, 2, 2, 0, 4, 1, 6, 5, 3, 4, 0, 6, 5, 0],
[5, 2, 1, 0, 3, 5, 3, 3, 5, 3, 2, 2, 0, 4, 1, 6, 5, 3, 4, 0, 6, 5, 0],
[5, 2, 1, 0, 3, 5, 3, 3, 5, 3, 2, 2, 0, 4, 1, 6, 5, 3, 4, 0, 6, 5, 0],
[5, 2, 1, 0, 3, 5, 3, 3, 5, 3, 2, 2, 0, 4, 1, 6, 5, 3, 4, 0, 6, 5, 0],
[5, 2, 1, 0, 3, 5, 3, 3, 5, 3, 2, 2, 0, 4, 1, 6, 5, 3, 4, 0, 6, 5, 0],
[5, 2, 1, 0, 3, 5, 3, 3, 5, 3, 2, 2, 0, 4, 1, 6, 5, 3, 4, 0, 6, 5, 0]
];
F = [
[1, 0, 0, 0, 1, 0, 1, 1, 1, 0, 0, 0, 0, 1, 0, 1, 1, 1, 1, 1, 0, 1, 0],
[1, 0, 0, 0, 1, 0, 1, 1, 1, 0, 0, 0, 0, 1, 0, 1, 1, 1, 1, 1, 0, 1, 0],
[1, 0, 0, 0, 1, 0, 1, 1, 1, 0, 0, 0, 0, 1, 0, 1, 1, 1, 1, 1, 0, 1, 0],
[1, 0, 0, 0, 1, 0, 1, 1, 1, 0, 0, 0, 0, 1, 0, 1, 1, 1, 1, 1, 0, 1, 0],
[1, 0, 0, 0, 1, 0, 1, 1, 1, 0, 0, 0, 0, 1, 0, 1, 1, 1, 1, 1, 0, 1, 0],
[1, 0, 0, 0, 1, 0, 1, 1, 1, 0, 0, 0, 0, 1, 0, 1, 1, 1, 1, 1, 0, 1, 0],
[1, 0, 0, 0, 1, 0, 1, 1, 1, 0, 0, 0, 0, 1, 0, 1, 1, 1, 1, 1, 0, 1, 0],
[1, 0, 0, 0, 1, 0, 1, 1, 1, 0, 0, 0, 0, 1, 0, 1, 1, 1, 1, 1, 0, 1, 0],
[1, 0, 0, 0, 1, 0, 1, 1, 1, 0, 0, 0, 0, 1, 0, 1, 1, 1, 1, 1, 0, 1, 0],
[1, 0, 0, 0, 1, 0, 1, 1, 1, 0, 0, 0, 0, 1, 0, 1, 1, 1, 1, 1, 0, 1, 0],
[1, 0, 0, 0, 1, 0, 1, 1, 1, 0, 0, 0, 0, 1, 0, 1, 1, 1, 1, 1, 0, 1, 0],
[1, 0, 0, 0, 1, 0, 1, 1, 1, 0, 0, 0, 0, 1, 0, 1, 1, 1, 1, 1, 0, 1, 0],
[1, 0, 0, 0, 1, 0, 1, 1, 1, 0, 0, 0, 0, 1, 0, 1, 1, 1, 1, 1, 0, 1, 0],
[1, 0, 0, 0, 1, 0, 1, 1, 1, 0, 0, 0, 0, 1, 0, 1, 1, 1, 1, 1, 0, 1, 0],
[1, 0, 0, 0, 1, 0, 1, 1, 1, 0, 0, 0, 0, 1, 0, 1, 1, 1, 1, 1, 0, 1, 0],
[1, 0, 0, 0, 1, 0, 1, 1, 1, 0, 0, 0, 0, 1, 0, 1, 1, 1, 1, 1, 0, 1, 0],
[1, 0, 0, 0, 1, 0, 1, 1, 1, 0, 0, 0, 0, 1, 0, 1, 1, 1, 1, 1, 0, 1, 0],
[1, 0, 0, 0, 1, 0, 1, 1, 1, 0, 0, 0, 0, 1, 0, 1, 1, 1, 1, 1, 0, 1, 0],
[1, 0, 0, 0, 1, 0, 1, 1, 1, 0, 0, 0, 0, 1, 0, 1, 1, 1, 1, 1, 0, 1, 0],
[1, 0, 0, 0, 1, 0, 1, 1, 1, 0, 0, 0, 0, 1, 0, 1, 1, 1, 1, 1, 0, 1, 0],
[1, 0, 0, 0, 1, 0, 1, 1, 1, 0, 0, 0, 0, 1, 0, 1, 1, 1, 1, 1, 0, 1, 0],
[1, 0, 0, 0, 1, 0, 1, 1, 1, 0, 0, 0, 0, 1, 0, 1, 1, 1, 1, 1, 0, 1, 0],
[1, 0, 0, 0, 1, 0, 1, 1, 1, 0, 0, 0, 0, 1, 0, 1, 1, 1, 1, 1, 0, 1, 0],
[1, 0, 0, 0, 1, 0, 1, 1, 1, 0, 0, 0, 0, 1, 0, 1, 1, 1, 1, 1, 0, 1, 0],
[1, 0, 0, 0, 1, 0, 1, 1, 1, 0, 0, 0, 0, 1, 0, 1, 1, 1, 1, 1, 0, 1, 0],
[1, 0, 0, 0, 1, 0, 1, 1, 1, 0, 0, 0, 0, 1, 0, 1, 1, 1, 1, 1, 0, 1, 0],
[1, 0, 0, 0, 1, 0, 1, 1, 1, 0, 0, 0, 0, 1, 0, 1, 1, 1, 1, 1, 0, 1, 0],
[1, 0, 0, 0, 1, 0, 1, 1, 1, 0, 0, 0, 0, 1, 0, 1, 1, 1, 1, 1, 0, 1, 0],
[1, 0, 0, 0, 1, 0, 1, 1, 1, 0, 0, 0, 0, 1, 0, 1, 1, 1, 1, 1, 0, 1, 0]
];
N_P = 17;
n = [1, 2, 2, 1, 1, 1, 3, 2, 1, 3, 2, 1, 2, 2, 2, 1, 3];
p_C = [0, 3, 2, 1, 0, 0, 0, 1, 2, 2, 1, 1, 1, 0, 3, 2, 2];
p_D = [0, 2, 1, 2, 1, 0, 3, 1, 0, 3, 3, 2, 0, 3, 0, 1, 3];
Delta = [
[0],
[0, 1],
[0, 3],
[0],
[0],
[0],
[0, 1, 1],
[0, 1],
[0],
[0, 2, 3],
[0, 1],
[0],
[0, 2],
[0, 2],
[0, 3],
[0],
[0, 1, 2]
];
e_A = [
[0],
[1, 0],
[0, 0],
[0],
[0],
[1],
[1, 0, 0],
[0, 0],
[1],
[1, 0, 0],
[1, 1],
[0],
[0, 0],
[1, 0],
[1, 0],
[0],
[1, 0, 0]
];
e_C = [
[0],
[0, 0],
[1, 0],
[1],
[0],
[0],
[1, 1, 0],
[0, 1],
[0],
[0, 1, 0],
[0, 1],
[0],
[0, 0],
[0, 0],
[0, 1],
[1],
[1, 0, 1]
];
